1146 1971
491 1145
1148 447
1447 2089
1618 830
1246 150
1593 577
1646 301
378 2373
1679 197
900 918
990 216
98 94
1283 1462
2351 1558
2521 1687
2100 748
565 2348
584 941
65 1124
186 449
1086 2424
1791 831
552 1562
1190 2540
1775 2367
384 966
1334 1116
1304 268
2102 1761
1967 251
2356 600
1802 630
598 1078
1710 571
966 2298
819 752
261 594
1018 183
1995 249
1675 824
1291 891
664 613
2227 1627
470 2469
544 2320
1347 669
1879 1393
1489 2164
931 2178
